# hf/3-21g geom=connectivity

Title Card Required

0 1
 C                 0. 0. 0.
 H                 -0.9614943570914525 0.24933139565847773 0.6088865199674469
 H                 0.648015593898639 0.8483618384170237 0.07251193820249308
 H                 0.0 -0.5631949654420987 -0.9097864754439217
 C                 0.0 -0.8535546446536736 1.2071085405174389
 H                 0.0 -0.2903596792115749 2.1168950159613606
 H                 0.9614943570914525 -1.1028860403121512 0.598222020549992
 H                 -0.648015593898639 -1.7019164830706974 1.1345966023149459

 1 2 1.0 3 1.0 4 1.0 5 1.0
 2
 3
 4
 5 6 1.0 7 1.0 8 1.0
 6
 7
 8

