# hf/3-21g geom=connectivity

Title Card Required

0 1
 C                 0. 0. 0.
 H                 1[n][0] 1[n][1] 1[n][2]
 H                 2[n][0] 2[n][1] 2[n][2]
 H                 3[n][0] 3[n][1] 3[n][2]
 C                 4[n][0] 4[n][1] 4[n][2]
 H                 5[n][0] 5[n][1] 5[n][2]
 H                 6[n][0] 6[n][1] 6[n][2]
 H                 7[n][0] 7[n][1] 7[n][2]

 1 2 1.0 3 1.0 4 1.0 5 1.0
 2
 3
 4
 5 6 1.0 7 1.0 8 1.0
 6
 7
 8

